20
587 233 220
86 71 41
75 58 58
100 81 27
59 42 24
69 37 30
63 50 36
96 72 34
111 71 29
102 67 53
71 34 32
88 75 53
50 46 42
84 70 41
98 48 44
54 43 25
63 61 49
106 96 51
97 64 26
68 39 29
68 62 39
thpack7_26